NAME          COPTPROB
OBJSENSE
  MIN
ROWS
 N  __OBJ___
 L  C3      
 L  C64     
 L  C76     
 L  C158    
COLUMNS
    MARKER    'MARKER'                 'INTORG'
    x48       __OBJ___  15
    x48       C3        -1
    x48       C158      -1
    x256      __OBJ___  90
    x256      C76       -1
    x256      C158      -1
    x355      __OBJ___  1
    x355      C3        -1
    x445      __OBJ___  331
    x445      C64       -1
    x445      C76       -1
    x471      __OBJ___  257
    x471      C3        -1
    x471      C64       -1
    MARKER    'MARKER'                 'INTEND'
RHS
    RHS       __OBJ___  -16482
    RHS       C3        -1
    RHS       C64       -1
    RHS       C76       -1
    RHS       C158      -1
BOUNDS
 UP BOUND     x48       1
 UP BOUND     x256      1
 UP BOUND     x355      1
 UP BOUND     x445      1
 UP BOUND     x471      1
ENDATA
